NAME phototropism_srl_ilp
* Max problem is converted into Min one
ROWS
 N  OBJ
 L  constraint1_1530
 L  constraint1_6570
 L  constraint1_1480
 L  constraint1_2220
 L  constraint2_1920
 L  constraint2_1921
 L  constraint2_1922
 L  constraint2_1923
 L  constraint2_2880
 L  constraint2_2881
 L  constraint2_2882
 L  constraint2_2883
 L  constraint2_1530
 L  constraint2_1531
 L  constraint2_1532
 L  constraint2_1533
 L  constraint2_6570
 L  constraint2_6571
 L  constraint2_6572
 L  constraint2_6573
 L  constraint2_760
 L  constraint2_761
 L  constraint2_762
 L  constraint2_763
 L  constraint2_1480
 L  constraint2_1481
 L  constraint2_1482
 L  constraint2_1483
 L  constraint2_5090
 L  constraint2_5091
 L  constraint2_5092
 L  constraint2_5093
 L  constraint2_2220
 L  constraint2_2221
 L  constraint2_2222
 L  constraint2_2223
COLUMNS
    MARKER    'MARKER'                 'INTORG'
    Z_153_0_0  OBJ       -6.8066107287778560e-03
    Z_153_0_0  constraint1_1530  1
    Z_153_0_0  constraint2_1530  1
    Z_153_0_1  OBJ       -8.3334357742948895e-01
    Z_153_0_1  constraint1_1530  1
    Z_153_0_1  constraint2_1531  1
    Z_153_0_2  OBJ       -2.8827406675114814e-03
    Z_153_0_2  constraint1_1530  1
    Z_153_0_2  constraint2_1532  1
    Z_153_0_3  OBJ       -2.7916962311390369e-03
    Z_153_0_3  constraint1_1530  1
    Z_153_0_3  constraint2_1533  1
    Z_153_0_4  OBJ       -5.4175374943082763e-02
    Z_153_0_4  constraint1_1530  1
    Z_657_0_0  OBJ       -9.5352907477779560e-03
    Z_657_0_0  constraint1_6570  1
    Z_657_0_0  constraint2_6570  1
    Z_657_0_1  OBJ       -8.0552457101064276e-03
    Z_657_0_1  constraint1_6570  1
    Z_657_0_1  constraint2_6571  1
    Z_657_0_2  OBJ       -4.4794380323456440e-01
    Z_657_0_2  constraint1_6570  1
    Z_657_0_2  constraint2_6572  1
    Z_657_0_3  OBJ       -1.6694652555322719e-02
    Z_657_0_3  constraint1_6570  1
    Z_657_0_3  constraint2_6573  1
    Z_657_0_4  OBJ       -4.1777100775222858e-01
    Z_657_0_4  constraint1_6570  1
    Z_148_0_0  OBJ       -1.3964309596089981e-03
    Z_148_0_0  constraint1_1480  1
    Z_148_0_0  constraint2_1480  1
    Z_148_0_1  OBJ       -2.6116209630271614e-01
    Z_148_0_1  constraint1_1480  1
    Z_148_0_1  constraint2_1481  1
    Z_148_0_2  OBJ       -9.0043220502063822e-04
    Z_148_0_2  constraint1_1480  1
    Z_148_0_2  constraint2_1482  1
    Z_148_0_3  OBJ       -7.1386087233521311e-03
    Z_148_0_3  constraint1_1480  1
    Z_148_0_3  constraint2_1483  1
    Z_148_0_4  OBJ       -6.2940243180930211e-01
    Z_148_0_4  constraint1_1480  1
    Z_222_0_0  OBJ       -2.0510555584248798e-02
    Z_222_0_0  constraint1_2220  1
    Z_222_0_0  constraint2_2220  1
    Z_222_0_1  OBJ       -6.4640040552014000e-02
    Z_222_0_1  constraint1_2220  1
    Z_222_0_1  constraint2_2221  1
    Z_222_0_2  OBJ       -3.0880898757285002e-02
    Z_222_0_2  constraint1_2220  1
    Z_222_0_2  constraint2_2222  1
    Z_222_0_3  OBJ       -1.3498977554254565e-01
    Z_222_0_3  constraint1_2220  1
    Z_222_0_3  constraint2_2223  1
    Z_222_0_4  OBJ       -6.4897872956390645e-01
    Z_222_0_4  constraint1_2220  1
    MARKER    'MARKER'                 'INTEND'
RHS
    RHS1      constraint1_1530  1
    RHS1      constraint1_6570  1
    RHS1      constraint1_1480  1
    RHS1      constraint1_2220  1
    RHS1      constraint2_1920  1
    RHS1      constraint2_1921  1
    RHS1      constraint2_1922  1
    RHS1      constraint2_1923  1
    RHS1      constraint2_2880  1
    RHS1      constraint2_2881  1
    RHS1      constraint2_2882  1
    RHS1      constraint2_2883  1
    RHS1      constraint2_1530  1
    RHS1      constraint2_1531  1
    RHS1      constraint2_1532  1
    RHS1      constraint2_1533  1
    RHS1      constraint2_6570  1
    RHS1      constraint2_6571  1
    RHS1      constraint2_6572  1
    RHS1      constraint2_6573  1
    RHS1      constraint2_760  1
    RHS1      constraint2_761  1
    RHS1      constraint2_762  1
    RHS1      constraint2_763  1
    RHS1      constraint2_1480  1
    RHS1      constraint2_1481  1
    RHS1      constraint2_1482  1
    RHS1      constraint2_1483  1
    RHS1      constraint2_5090  1
    RHS1      constraint2_5091  1
    RHS1      constraint2_5092  1
    RHS1      constraint2_5093  1
    RHS1      constraint2_2220  1
    RHS1      constraint2_2221  1
    RHS1      constraint2_2222  1
    RHS1      constraint2_2223  1
BOUNDS
 UP BND1      Z_153_0_0  1
 UP BND1      Z_153_0_1  1
 UP BND1      Z_153_0_2  1
 UP BND1      Z_153_0_3  1
 UP BND1      Z_153_0_4  1
 UP BND1      Z_657_0_0  1
 UP BND1      Z_657_0_1  1
 UP BND1      Z_657_0_2  1
 UP BND1      Z_657_0_3  1
 UP BND1      Z_657_0_4  1
 UP BND1      Z_148_0_0  1
 UP BND1      Z_148_0_1  1
 UP BND1      Z_148_0_2  1
 UP BND1      Z_148_0_3  1
 UP BND1      Z_148_0_4  1
 UP BND1      Z_222_0_0  1
 UP BND1      Z_222_0_1  1
 UP BND1      Z_222_0_2  1
 UP BND1      Z_222_0_3  1
 UP BND1      Z_222_0_4  1
QUADOBJ
    Z_153_0_0  Z_148_0_0  -1.5834635046463025e-01
    Z_153_0_0  Z_222_0_0  -3.3329932780540458e-02
    Z_153_0_1  Z_148_0_1  -1.5834635046463025e-01
    Z_153_0_1  Z_222_0_1  -3.3329932780540458e-02
    Z_153_0_2  Z_148_0_2  -1.5834635046463025e-01
    Z_153_0_2  Z_222_0_2  -3.3329932780540458e-02
    Z_153_0_3  Z_148_0_3  -1.5834635046463025e-01
    Z_153_0_3  Z_222_0_3  -3.3329932780540458e-02
    Z_153_0_4  Z_148_0_4  -1.5834635046463025e-01
    Z_153_0_4  Z_222_0_4  -3.3329932780540458e-02
    Z_657_0_0  Z_148_0_0  -1.9999999999999996e-01
    Z_657_0_1  Z_148_0_1  -1.9999999999999996e-01
    Z_657_0_2  Z_148_0_2  -1.9999999999999996e-01
    Z_657_0_3  Z_148_0_3  -1.9999999999999996e-01
    Z_657_0_4  Z_148_0_4  -1.9999999999999996e-01
    Z_148_0_0  Z_222_0_0  -3.1632723022533053e-02
    Z_148_0_1  Z_222_0_1  -3.1632723022533053e-02
    Z_148_0_2  Z_222_0_2  -3.1632723022533053e-02
    Z_148_0_3  Z_222_0_3  -3.1632723022533053e-02
    Z_148_0_4  Z_222_0_4  -3.1632723022533053e-02
ENDATA
